experiments/eusolverbv/7/DirectTrainGenes/000100001001001110011101011100101011110010011/231_.sl

(set-logic BV)

(define-fun shr1 ((x (BitVec 64))) (BitVec 64) (bvlshr x #x0000000000000001))
(define-fun shr4 ((x (BitVec 64))) (BitVec 64) (bvlshr x #x0000000000000004))
(define-fun shr16 ((x (BitVec 64))) (BitVec 64) (bvlshr x #x0000000000000010))
(define-fun shl1 ((x (BitVec 64))) (BitVec 64) (bvshl x #x0000000000000001))
(define-fun if0 ((x (BitVec 64)) (y (BitVec 64)) (z (BitVec 64))) (BitVec 64) (ite (= x #x0000000000000001) y z))
(define-fun func23  ((A (BitVec 64)) (B (BitVec 64)) (C (BitVec 64)) (D (BitVec 64)) ) (BitVec 64) (bvand (bvlshr (bvlshr C  D ) B ) A ))
(define-fun func24  ((A (BitVec 64)) (B (BitVec 64)) (C (BitVec 64)) ) (BitVec 64) (bvand (bvlshr B  C ) A ))
(define-fun func25  ((A (BitVec 64)) (B (BitVec 64)) ) (BitVec 64) (bvand (bvlshr B  #x0000000000000001 ) A ))
(define-fun func26  ((A (BitVec 64)) (B (BitVec 64)) ) (BitVec 64) (bvand (bvlshr B  #x0000000000000010 ) A ))
(define-fun func27  ((A (BitVec 64)) (B (BitVec 64)) ) (BitVec 64) (bvand (bvlshr B  #x0000000000000004 ) A ))
(define-fun func28  ((A (BitVec 64)) (B (BitVec 64)) ) (BitVec 64) (bvand (bvlshr A  B ) #x0000000000000001 ))
(define-fun func29  ((A (BitVec 64)) ) (BitVec 64) (bvand A  #x0000000000000001 ))
(define-fun func30  ((A (BitVec 64)) (B (BitVec 64)) (C (BitVec 64)) (D (BitVec 64)) ) (BitVec 64) (bvlshr (bvlshr (bvlshr C  D ) B ) A ))
(define-fun func31  ((A (BitVec 64)) (B (BitVec 64)) (C (BitVec 64)) ) (BitVec 64) (bvlshr (bvlshr (bvlshr C  #x0000000000000010 ) B ) A ))
(define-fun func32  ((A (BitVec 64)) (B (BitVec 64)) (C (BitVec 64)) ) (BitVec 64) (bvlshr (bvlshr B  C ) A ))
(define-fun func33  ((A (BitVec 64)) (B (BitVec 64)) ) (BitVec 64) (bvlshr (bvlshr B  #x0000000000000010 ) A ))
(define-fun func34  ((A (BitVec 64)) (B (BitVec 64)) ) (BitVec 64) (bvlshr (bvlshr B  #x0000000000000004 ) A ))
(define-fun func35  ((A (BitVec 64)) (B (BitVec 64)) ) (BitVec 64) (bvlshr (bvlshr B  #x0000000000000001 ) A ))
(define-fun func36  ((A (BitVec 64)) (B (BitVec 64)) ) (BitVec 64) (bvlshr (bvlshr A  B ) #x0000000000000001 ))
(define-fun func37  ((A (BitVec 64)) (B (BitVec 64)) ) (BitVec 64) (bvlshr (bvlshr A  B ) #x0000000000000004 ))
(define-fun func38  ((A (BitVec 64)) (B (BitVec 64)) ) (BitVec 64) (bvlshr A  B ))
(define-fun func39  ((A (BitVec 64)) (B (BitVec 64)) (C (BitVec 64)) ) (BitVec 64) (bvlshr (bvshl B  C ) A ))
(define-fun func40  ((A (BitVec 64)) (B (BitVec 64)) ) (BitVec 64) (bvlshr (bvshl B  #x0000000000000001 ) A ))
(define-fun func41  ((A (BitVec 64)) (B (BitVec 64)) ) (BitVec 64) (bvlshr (bvshl A  B ) #x0000000000000004 ))
(define-fun func42  ((A (BitVec 64)) (B (BitVec 64)) (C (BitVec 64)) ) (BitVec 64) (bvlshr (bvadd B  C ) A ))
(define-fun func43  ((A (BitVec 64)) (B (BitVec 64)) ) (BitVec 64) (bvlshr (bvnot B ) A ))
(define-fun func44  ((A (BitVec 64)) ) (BitVec 64) (bvlshr (bvnot A ) #x0000000000000010 ))
(define-fun func45  ((A (BitVec 64)) (B (BitVec 64)) (C (BitVec 64)) ) (BitVec 64) (bvor (bvlshr B  C ) A ))
(define-fun func46  ((A (BitVec 64)) ) (BitVec 64) (bvor A  #x0000000000000001 ))
(define-fun func47  ((A (BitVec 64)) (B (BitVec 64)) (C (BitVec 64)) ) (BitVec 64) (bvshl (bvlshr B  C ) A ))
(define-fun func48  ((A (BitVec 64)) (B (BitVec 64)) ) (BitVec 64) (bvshl (bvlshr B  #x0000000000000001 ) A ))
(define-fun func49  ((A (BitVec 64)) (B (BitVec 64)) ) (BitVec 64) (bvshl (bvlshr A  B ) #x0000000000000001 ))
(define-fun func51  ((A (BitVec 64)) (B (BitVec 64)) (C (BitVec 64)) ) (BitVec 64) (bvshl (bvshl B  C ) A ))
(define-fun func52  ((A (BitVec 64)) (B (BitVec 64)) ) (BitVec 64) (bvshl (bvshl B  #x0000000000000001 ) A ))
(define-fun func53  ((A (BitVec 64)) (B (BitVec 64)) ) (BitVec 64) (bvshl (bvshl A  B ) #x0000000000000001 ))
(define-fun func54  ((A (BitVec 64)) (B (BitVec 64)) (C (BitVec 64)) ) (BitVec 64) (bvadd (bvlshr B  C ) A ))
(define-fun func55  ((A (BitVec 64)) ) (BitVec 64) (bvadd A  #x0000000000000001 ))
(define-fun func56  ((A (BitVec 64)) (B (BitVec 64)) (C (BitVec 64)) ) (BitVec 64) (bvadd (bvshl B  C ) A ))
(define-fun func57  ((A (BitVec 64)) (B (BitVec 64)) ) (BitVec 64) (bvadd (bvshl B  #x0000000000000001 ) A ))
(define-fun func58  ((A (BitVec 64)) ) (BitVec 64) (bvnot (bvshl A  #x0000000000000001 )))
(synth-fun f ( (x (BitVec 64))) (BitVec 64)
(
(Start (BitVec 64) (
   #x0000000000000000
   #x0000000000000001
   x
   (func26 Start Start)
   (func31 Start Start Start)
   (func34 Start Start)
   (func37 Start Start)
   (func38 Start Start)
   (func39 Start Start Start)
   (func42 Start Start Start)
   (func43 Start Start)
   (func44 Start)
   (func46 Start)
   (func48 Start Start)
   (func49 Start Start)
   (func51 Start Start Start)
   (func54 Start Start Start)
   (func56 Start Start Start)
   (func58 Start)
   (shr4 Start)
   (shr16 Start)
   (bvor Start Start)
   (bvxor Start Start)
   (if0 Start Start Start)
))
))
(constraint (= (f #x8cb4180c899438b8) #x00008cb4180c8994))
(constraint (= (f #x84d1556986a5c7a4) #x000084d1556986a5))
(constraint (= (f #xf9de4e4f8e994790) #x0000f9de4e4f8e99))
(constraint (= (f #xfda1b3b7badbbbc8) #x0000fda1b3b7badb))
(constraint (= (f #xafa4971ceccda9a8) #x0000afa4971ceccd))
(constraint (= (f #x1ad0aa14922301ca) #x00001ad0aa149223))
(constraint (= (f #xab6810e8ea6405de) #x0000ab6810e8ea64))
(constraint (= (f #xcd2eb209625851aa) #x0000cd2eb2096258))
(constraint (= (f #x24f7552dd6f3d3d2) #x000024f7552dd6f3))
(constraint (= (f #xf4a6d6e497cda2de) #x0000f4a6d6e497cd))
(constraint (= (f #xf694c2d610b94d9d) #x0000f694c2d610b9))
(constraint (= (f #xc1491203bc810e99) #x0000c1491203bc81))
(constraint (= (f #x2bc0c1e2f04a9d8d) #x00002bc0c1e2f04a))
(constraint (= (f #x78e81c1bec282ad5) #x000078e81c1bec28))
(constraint (= (f #x95d977c598f27a65) #x000095d977c598f2))
(constraint (= (f #x412a0fbb2235d75b) #x82541f76446baeb6))
(constraint (= (f #x46abf4f4c5a379cb) #x8d57e9e98b46f396))
(constraint (= (f #xa7e70e4799c3ec33) #x4fce1c8f3387d866))
(constraint (= (f #x65bf98d10e78b63f) #xcb7f31a21cf16c7e))
(constraint (= (f #x74a2045288fe8d3b) #xe94408a511fd1a76))
(constraint (= (f #xd74594057974e439) #x0000d74594057974))
(constraint (= (f #x74641ebeee92e8a2) #x000074641ebeee92))
(constraint (= (f #x91c80141d7ec76b1) #x000091c80141d7ec))
(constraint (= (f #xe4e55862e5ee4bec) #x0000e4e55862e5ee))
(constraint (= (f #x367da67ede4260ce) #x0000367da67ede42))
(constraint (= (f #xa365eb36246b3d8e) #x0000a365eb36246b))
(constraint (= (f #xcd8a44a6d4c09c29) #x0000cd8a44a6d4c0))
(constraint (= (f #xa97e9b9b7970433d) #x0000a97e9b9b7970))
(constraint (= (f #x474dec0dd75d6894) #x0000474dec0dd75d))
(constraint (= (f #x12430014ed058b24) #x000012430014ed05))
(constraint (= (f #x4f00c60ec3e84de7) #x9e018c1d87d09bce))
(check-synth)
