experiments/eusolverbv/7/DirectTrainGenes/000100001001001110011101011100101011110010011/231_.out
(define-fun f ((x (BitVec 64))) (BitVec 64)
     (if0 (bvxor (func46 x) x) (shr16 x) (if0 (func26 #x0000000000000001 (func58 x)) (if0 (func26 #x0000000000000001 (func44 x)) (if0 (func26 #x0000000000000001 (shr4 x)) (shr16 x) (func49 x #x0000000000000000)) (shr16 x)) (if0 (func26 #x0000000000000001 (func44 (shr4 x))) (if0 (func26 #x0000000000000001 x) (func49 x #x0000000000000000) (shr16 x)) (func49 x #x0000000000000000)))))
12.510138776153326
